instances/basica/instancia_basica.txt
4 3 3

29 50 9 20 30 19 24 20 32 
18 24 33 47 22 37 48 20 12 
5 43 28 7 36 40 43 21 8 
16 50 15 9 16 17 33 38 24 

119 169 97 173 70 131 185 186 44 
95 132 13 168 120 179 104 94 53 
155 14 90 162 170 78 148 28 178 
30 45 16 39 161 155 200 94 182 
